
Log started (V11.0.0) Mon May 19 01:06:47 2008

Tried aggregator 1 time.
Reduced MIP has 540 rows, 20001 columns, and 40040 nonzeros.
Presolve time =    0.16 sec.
Clique table members: 500.
MIP emphasis: balance optimality and feasibility.
MIP search method: dynamic search.
Parallel mode: none, using 1 thread.
Root relaxation solution time =    1.66 sec.

        Nodes                                         Cuts/
   Node  Left     Objective  IInf  Best Integer     Best Node    ItCnt     Gap

*     0+    0                        55257.0000     1251.8250      921   97.73%
*     0+    0                         1304.0000     1251.8250      921    4.00%
      0     0     1252.6717    74     1304.0000      Fract: 6     1037    3.94%
      0     0     1263.6197    99     1304.0000      Cuts: 21     2295    3.10%
      0     0     1263.6197    94     1304.0000       Cuts: 3     2305    3.10%
      0     0     1263.6197    88     1304.0000     Covers: 1     2322    3.10%
      0     0     1263.6197    94     1304.0000       Cuts: 4     2338    3.10%
      0     0     1263.6197    97     1304.0000     Covers: 1     2344    3.10%
*     0+    0                         1303.0000     1263.6197     2344    3.02%
*     0+    0                         1302.0000     1263.6197     2344    2.95%
      0     2     1263.6197    97     1302.0000     1263.6197     2344    2.95%
*    40+   39                         1301.0000     1263.6284     2964    2.87%
    100   101     1264.0000    74     1301.0000     1263.6284     4267    2.87%
    200   201     1264.0000    78     1301.0000     1263.6284     7621    2.87%
    300   297     1264.0000    84     1301.0000     1263.6284    14438    2.87%
    400   384     1265.0000    77     1301.0000     1263.6284    23715    2.87%
    500   476     1265.8006    91     1301.0000     1263.6284    29445    2.87%
    600   512     1280.0000    76     1301.0000     1279.4246    38150    1.66%
    700   532     1280.0000    78     1301.0000     1279.4246    40883    1.66%
    800   470     1280.0000    72     1301.0000     1279.4246    42988    1.66%
    900   394     1280.0000    76     1301.0000     1279.4246    45433    1.66%
   1000   319        cutoff           1301.0000     1279.4246    48862    1.66%
Elapsed time = 218.14 sec. (tree size =  3.93 MB, solutions = 5)
   1100   261     1280.0000    81     1301.0000     1279.4246    51739    1.66%
   1200   310     1281.0000    72     1301.0000     1279.4246    54634    1.66%
   1300   410     1281.0000    74     1301.0000     1279.4246    55514    1.66%
   1400   510     1281.0000    69     1301.0000     1279.4246    56087    1.66%
   1500   610     1281.0000    73     1301.0000     1279.4246    56639    1.66%
   1600   710     1281.0000    75     1301.0000     1279.4246    56995    1.66%
   1700   810     1281.0000    77     1301.0000     1279.4246    58015    1.66%
   1800   910     1281.0000    76     1301.0000     1279.4246    58735    1.66%
   1900  1010     1281.0000    74     1301.0000     1279.4246    59845    1.66%
   2000  1109     1282.0000    71     1301.0000     1279.4246    62244    1.66%
Elapsed time = 270.31 sec. (tree size = 15.50 MB, solutions = 5)
   2100  1209     1282.0000    71     1301.0000     1279.4246    62703    1.66%
   2200  1309     1282.0000    73     1301.0000     1279.4246    63124    1.66%
   2300  1409     1282.0000    76     1301.0000     1279.4246    63640    1.66%
   2400  1509     1282.0000    72     1301.0000     1279.4246    64256    1.66%
   2500  1609     1282.0000    71     1301.0000     1279.4246    64876    1.66%
   2600  1709     1282.0000    71     1301.0000     1279.4246    65235    1.66%
   2700  1809     1282.0000    73     1301.0000     1279.4246    65819    1.66%
   2800  1909     1282.0000    71     1301.0000     1279.4246    66416    1.66%
   2900  2009     1282.0000    73     1301.0000     1279.4246    67162    1.66%
   3000  2109     1282.0000    74     1301.0000     1279.4246    67715    1.66%
Elapsed time = 294.19 sec. (tree size = 30.02 MB, solutions = 5)
   3100  2209     1282.0000    68     1301.0000     1279.4246    68277    1.66%
   3200  2309     1282.0000    73     1301.0000     1279.4246    68817    1.66%
   3300  2408     1282.0000    73     1301.0000     1279.4246    70936    1.66%
   3400  2507     1282.0000    74     1301.0000     1279.4246    73143    1.66%
   3500  2607     1282.0000    72     1301.0000     1279.4246    73798    1.66%
   3600  2707     1282.0000    75     1301.0000     1279.4246    74972    1.66%
   3700  2807     1282.0000    72     1301.0000     1279.4246    75739    1.66%
   3800  2905     1282.0000    76     1301.0000     1279.4246    79605    1.66%
   3900  3000     1282.0000    73     1301.0000     1279.4246    86249    1.66%
   4000  3073     1283.0000    66     1301.0000     1279.4246    90296    1.66%
Elapsed time = 350.49 sec. (tree size = 44.00 MB, solutions = 5)
   4100  3139     1285.1597    77     1301.0000     1279.4246    99493    1.66%
   4200  3193     1285.2393    73     1301.0000     1279.4246   109587    1.66%
   4300  3245     1285.0000    69     1301.0000     1279.4246   116717    1.66%
   4400  3295     1285.0000    69     1301.0000     1279.4246   124299    1.66%
   4500  3346     1285.0000    70     1301.0000     1279.4246   129551    1.66%
   4600  3396     1285.7978    73     1301.0000     1279.4246   135662    1.66%
   4700  3460     1287.5040    67     1301.0000     1279.4246   140731    1.66%
   4800  3533     1287.0000    71     1301.0000     1279.4246   143860    1.66%
   4900  3594     1288.0000    65     1301.0000     1279.4246   148036    1.66%
   5000  3647     1288.0000    66     1301.0000     1279.4246   153827    1.66%
Elapsed time = 454.27 sec. (tree size = 52.32 MB, solutions = 5)
   5100  3699     1289.3930    69     1301.0000     1279.4246   160189    1.66%
   5200  3752     1290.9202    66     1301.0000     1279.4246   165268    1.66%
   5300  3816     1290.0000    64     1301.0000     1279.4246   169826    1.66%
   5400  3869     1290.0000    67     1301.0000     1279.4246   176476    1.66%
   5500  3921     1291.1791    64     1301.0000     1279.4246   182969    1.66%
   5600  3991     1292.0000    68     1301.0000     1279.4246   186986    1.66%
   5700  4053     1293.0000    57     1301.0000     1279.4246   191498    1.66%
   5800  4111     1293.0000    66     1301.0000     1279.4246   196889    1.66%
   5900  4176     1295.0000    62     1301.0000     1279.4246   201085    1.66%
   6000  4233     1297.1580    62     1301.0000     1279.4246   206185    1.66%
Elapsed time = 552.00 sec. (tree size = 60.88 MB, solutions = 5)
   6100  4310     1297.0000    63     1301.0000     1279.4246   209822    1.66%
   6200  4366     1298.3379    60     1301.0000     1279.4246   217543    1.66%
   6300  4425     1298.9725    62     1301.0000     1279.4246   225832    1.66%
   6400  4482     1281.0000    80     1301.0000     1279.4246   231452    1.66%
   6500  4578     1281.0000    77     1301.0000     1279.4246   232565    1.66%
   6600  4676     1281.0000    78     1301.0000     1279.4246   234790    1.66%
   6700  4773     1281.0000    76     1301.0000     1279.4246   236607    1.66%
   6800  4810     1281.0000    74     1301.0000     1279.4246   239427    1.66%
   6900  4905     1282.0000    73     1301.0000     1279.4246   241921    1.66%
   7000  5005     1282.0000    76     1301.0000     1279.4246   244078    1.66%
Elapsed time = 665.81 sec. (tree size = 72.07 MB, solutions = 5)
   7100  5104     1282.0000    76     1301.0000     1279.4246   246909    1.66%
   7200  5199     1282.0000    76     1301.0000     1279.4246   253025    1.66%
   7300  5292     1284.0000    69     1301.0000     1279.4246   256431    1.66%
   7400  5382     1286.0000    67     1301.0000     1279.4246   258886    1.66%
   7500  5456     1287.0000    62     1301.0000     1279.4246   264546    1.66%
   7600  5518     1287.0000    65     1301.0000     1279.4246   274061    1.66%
   7700  5585     1287.0000    67     1301.0000     1279.4246   281478    1.66%
   7800  5658     1288.0000    67     1301.0000     1279.4246   286402    1.66%
   7900  5734     1288.0000    68     1301.0000     1279.4246   291535    1.66%
   8000  5807     1288.9142    70     1301.0000     1279.4246   298569    1.66%
Elapsed time = 795.16 sec. (tree size = 84.27 MB, solutions = 5)
   8100  5892     1288.0000    70     1301.0000     1279.4246   302787    1.66%
   8200  5968     1289.0000    63     1301.0000     1279.4246   309475    1.66%
   8300  6046     1291.6900    64     1301.0000     1279.4246   314269    1.66%
   8400  6122     1291.0000    63     1301.0000     1279.4246   318367    1.66%
   8500  6194     1292.2173    62     1301.0000     1279.4246   321983    1.66%
   8600  6263     1293.0000    60     1301.0000     1279.4246   326488    1.66%
   8700  6334     1294.0000    61     1301.0000     1279.4246   329966    1.66%
   8800  6400     1296.7725    59     1301.0000     1279.4246   333341    1.66%
   8900  6472     1296.0000    63     1301.0000     1279.4246   337386    1.66%
   9000  6545     1298.0000    58     1301.0000     1279.4246   340535    1.66%
Elapsed time = 899.39 sec. (tree size = 95.49 MB, solutions = 5)
   9100  6601     1300.0000    54     1301.0000     1279.4246   343546    1.66%
   9200  6649     1284.0000   189     1301.0000     1280.0000   674831    1.61%
   9300  6749     1284.0000    72     1301.0000     1280.0000   675746    1.61%
   9400  6849     1284.0000    70     1301.0000     1280.0000   676688    1.61%
   9500  6942     1285.0000    66     1301.0000     1280.0000   678803    1.61%
   9600  7042     1285.0000    68     1301.0000     1280.0000   680586    1.61%
   9700  7142     1285.0000    75     1301.0000     1280.0000   683452    1.61%
   9800  7235     1285.0000    63     1301.0000     1280.0000   686031    1.61%
   9900  7288        cutoff           1301.0000     1280.0000   688623    1.61%
  10000  7374     1286.0000    65     1301.0000     1280.0000   694952    1.61%
Elapsed time = 2020.22 sec. (tree size = 116.89 MB, solutions = 5)
  10100  7458     1287.0000    64     1301.0000     1280.0000   708176    1.61%
  10200  7549     1288.0000    74     1301.0000     1280.0000   713957    1.61%
  10300  7638     1289.0000    62     1301.0000     1280.0000   717812    1.61%
  10400  7716     1293.1088    69     1301.0000     1280.0000   728907    1.61%
  10500  7780     1290.9788    79     1301.0000     1280.0000   744169    1.61%
Began writing nodes to disk (directory ./cpxa02652 created)
  10600  7836     1291.4025    82     1301.0000     1280.0000   763308    1.61%
  10700  7910     1292.0000    65     1301.0000     1280.0000   774067    1.61%
  10800  7988     1292.0000    66     1301.0000     1280.0000   782805    1.61%
  10900  8052     1294.5495    64     1301.0000     1280.0000   790026    1.61%
  11000  8103     1294.7008    67     1301.0000     1280.0000   800675    1.61%
Elapsed time = 2310.61 sec. (tree size = 136.78 MB, solutions = 5)
Nodefile size =  8.93 MB (3.76 MB after compression)
  11100  8155     1293.0000    59     1301.0000     1280.0000   810949    1.61%
  11200  8213     1297.1871    57     1301.0000     1280.0000   820020    1.61%
  11300  8280     1294.0000    54     1301.0000     1280.0000   826705    1.61%
  11400  8343     1296.4875    63     1301.0000     1280.0000   832988    1.61%
  11500  8374     1285.1858   772     1301.0000     1280.0000   869765    1.61%
  11600  8449     1299.0000    52     1301.0000     1280.0000  1050300    1.61%
  11700  8523     1288.0000   563     1301.0000     1280.0000  1374090    1.61%
  11800  8622     1284.0000   154     1301.0000     1280.0000  1447030    1.61%
  11900  8721     1285.0000    74     1301.0000     1280.0000  1451515    1.61%
  12000  8818     1288.0000   128     1301.0000     1280.0000  1508434    1.61%
Elapsed time = 5367.81 sec. (tree size = 159.90 MB, solutions = 5)
Nodefile size = 32.34 MB (19.35 MB after compression)
  12100  8918     1288.0000    69     1301.0000     1280.0000  1509790    1.61%
  12200  9017     1292.0000    64     1301.0000     1280.0000  1589523    1.61%
  12300  9116     1294.0000    61     1301.0000     1280.0000  1591942    1.61%
  12400  9212     1295.0000    66     1301.0000     1280.0000  1620804    1.61%
  12500  9311     1296.0000    54     1301.0000     1280.0000  1622138    1.61%
  12600  9411     1296.0000    61     1301.0000     1280.0000  1623985    1.61%
  12700  9510     1297.0000    54     1301.0000     1280.0000  1626219    1.61%
  12800  9606     1291.0000    84     1301.0000     1280.0000  1651533    1.61%
  12900  9704     1293.0000    73     1301.0000     1280.0000  1658835    1.61%
  13000  9802     1294.0000    60     1301.0000     1280.0000  1698030    1.61%
Elapsed time = 6405.72 sec. (tree size = 194.97 MB, solutions = 5)
Nodefile size = 67.77 MB (47.66 MB after compression)
  13100  9901     1295.0000   105     1301.0000     1280.0000  1699755    1.61%
  13200  9994     1292.0000    68     1301.0000     1280.0000  1739108    1.61%
  13300 10094     1292.0000    71     1301.0000     1280.0000  1740128    1.61%
  13400 10193     1294.0000    65     1301.0000     1280.0000  1743823    1.61%
  13500 10285     1297.0000    81     1301.0000     1280.0000  1746071    1.61%
  13600 10382     1298.0000    62     1301.0000     1280.0000  1747421    1.61%
  13700 10463    infeasible           1301.0000     1280.0000  1755274    1.61%
  13800 10560     1291.0000    69     1301.0000     1280.0000  1801743    1.61%

Cover cuts applied:  2064
Mixed integer rounding cuts applied:  31
Gomory fractional cuts applied:  18

Solution pool: 5 solutions saved.

MIP - Time limit exceeded, integer feasible:  Objective = 1.3010000000e+003
Current MIP best bound = 1.2800000000e+003 (gap = 21, 1.61%)
Solution time = 7200.02 sec.  Iterations = 1804797  Nodes = 13898 (10657)


Incumbent solution
Variable Name           Solution Value
Cmax                       1301.000000
X_1_34                        1.000000
X_2_22                        1.000000
X_3_12                        1.000000
X_4_2                         1.000000
X_5_30                        1.000000
X_6_3                         1.000000
X_7_22                        1.000000
X_8_20                        1.000000
X_9_40                        1.000000
X_10_34                       1.000000
X_11_40                       1.000000
X_12_20                       1.000000
X_13_27                       1.000000
X_14_15                       1.000000
X_15_12                       1.000000
X_16_35                       1.000000
X_17_6                        1.000000
X_18_28                       1.000000
X_19_2                        1.000000
X_20_9                        1.000000
X_21_19                       1.000000
X_22_20                       1.000000
X_23_15                       1.000000
X_24_11                       1.000000
X_25_34                       1.000000
X_26_24                       1.000000
X_27_22                       1.000000
X_28_30                       1.000000
X_29_24                       1.000000
X_30_27                       1.000000
X_31_5                        1.000000
X_32_15                       1.000000
X_33_27                       1.000000
X_34_15                       1.000000
X_35_39                       1.000000
X_36_4                        1.000000
X_37_39                       1.000000
X_38_4                        1.000000
X_39_8                        1.000000
X_40_34                       1.000000
X_41_23                       1.000000
X_42_16                       1.000000
X_43_26                       1.000000
X_44_11                       1.000000
X_45_2                        1.000000
X_46_13                       1.000000
X_47_11                       1.000000
X_48_30                       1.000000
X_49_11                       1.000000
X_50_35                       1.000000
X_51_38                       1.000000
X_52_1                        1.000000
X_53_21                       1.000000
X_54_31                       1.000000
X_55_20                       1.000000
X_56_17                       1.000000
X_57_17                       1.000000
X_58_13                       1.000000
X_59_21                       1.000000
X_60_13                       1.000000
X_61_15                       1.000000
X_62_27                       1.000000
X_63_31                       1.000000
X_64_32                       1.000000
X_65_9                        1.000000
X_66_21                       1.000000
X_67_6                        1.000000
X_68_15                       1.000000
X_69_18                       1.000000
X_70_17                       1.000000
X_71_34                       1.000000
X_72_5                        1.000000
X_73_5                        1.000000
X_74_18                       1.000000
X_75_26                       1.000000
X_76_11                       1.000000
X_77_16                       1.000000
X_78_32                       1.000000
X_79_18                       1.000000
X_80_11                       1.000000
X_81_30                       1.000000
X_82_4                        1.000000
X_83_32                       1.000000
X_84_14                       1.000000
X_85_25                       1.000000
X_86_12                       1.000000
X_87_23                       1.000000
X_88_16                       1.000000
X_89_35                       1.000000
X_90_22                       1.000000
X_91_17                       1.000000
X_92_9                        1.000000
X_93_26                       1.000000
X_94_28                       1.000000
X_95_23                       1.000000
X_96_2                        1.000000
X_97_1                        1.000000
X_98_40                       1.000000
X_99_12                       1.000000
X_100_29                      1.000000
X_101_28                      1.000000
X_102_7                       1.000000
X_103_17                      1.000000
X_104_12                      1.000000
X_105_16                      1.000000
X_106_18                      1.000000
X_107_25                      1.000000
X_108_5                       1.000000
X_109_4                       1.000000
X_110_32                      1.000000
X_111_21                      1.000000
X_112_1                       1.000000
X_113_19                      1.000000
X_114_5                       1.000000
X_115_27                      1.000000
X_116_10                      1.000000
X_117_29                      1.000000
X_118_33                      1.000000
X_119_31                      1.000000
X_120_36                      1.000000
X_121_4                       1.000000
X_122_6                       1.000000
X_123_39                      1.000000
X_124_36                      1.000000
X_125_21                      1.000000
X_126_5                       1.000000
X_127_24                      1.000000
X_128_12                      1.000000
X_129_20                      1.000000
X_130_19                      1.000000
X_131_10                      1.000000
X_132_5                       1.000000
X_133_38                      1.000000
X_134_35                      1.000000
X_135_24                      1.000000
X_136_35                      1.000000
X_137_15                      1.000000
X_138_22                      1.000000
X_139_20                      1.000000
X_140_14                      1.000000
X_141_16                      1.000000
X_142_33                      1.000000
X_143_27                      1.000000
X_144_3                       1.000000
X_145_39                      1.000000
X_146_8                       1.000000
X_147_8                       1.000000
X_148_37                      1.000000
X_149_28                      1.000000
X_150_2                       1.000000
X_151_30                      1.000000
X_152_10                      1.000000
X_153_20                      1.000000
X_154_25                      1.000000
X_155_13                      1.000000
X_156_14                      1.000000
X_157_28                      1.000000
X_158_1                       1.000000
X_159_19                      1.000000
X_160_24                      1.000000
X_161_22                      1.000000
X_162_7                       1.000000
X_163_9                       1.000000
X_164_4                       1.000000
X_165_26                      1.000000
X_166_25                      1.000000
X_167_10                      1.000000
X_168_27                      1.000000
X_169_37                      1.000000
X_170_13                      1.000000
X_171_5                       1.000000
X_172_30                      1.000000
X_173_31                      1.000000
X_174_40                      1.000000
X_175_36                      1.000000
X_176_29                      1.000000
X_177_28                      1.000000
X_178_38                      1.000000
X_179_31                      1.000000
X_180_11                      1.000000
X_181_29                      1.000000
X_182_3                       1.000000
X_183_10                      1.000000
X_184_24                      1.000000
X_185_35                      1.000000
X_186_12                      1.000000
X_187_31                      1.000000
X_188_32                      1.000000
X_189_26                      1.000000
X_190_36                      1.000000
X_191_36                      1.000000
X_192_11                      1.000000
X_193_11                      1.000000
X_194_32                      1.000000
X_195_18                      1.000000
X_196_11                      1.000000
X_197_31                      1.000000
X_198_29                      1.000000
X_199_24                      1.000000
X_200_1                       1.000000
X_201_13                      1.000000
X_202_35                      1.000000
X_203_24                      1.000000
X_204_4                       1.000000
X_205_13                      1.000000
X_206_39                      1.000000
X_207_39                      1.000000
X_208_30                      1.000000
X_209_33                      1.000000
X_210_18                      1.000000
X_211_32                      1.000000
X_212_3                       1.000000
X_213_20                      1.000000
X_214_34                      1.000000
X_215_5                       1.000000
X_216_25                      1.000000
X_217_14                      1.000000
X_218_7                       1.000000
X_219_1                       1.000000
X_220_9                       1.000000
X_221_16                      1.000000
X_222_31                      1.000000
X_223_6                       1.000000
X_224_6                       1.000000
X_225_19                      1.000000
X_226_38                      1.000000
X_227_36                      1.000000
X_228_40                      1.000000
X_229_21                      1.000000
X_230_37                      1.000000
X_231_24                      1.000000
X_232_12                      1.000000
X_233_30                      1.000000
X_234_38                      1.000000
X_235_8                       1.000000
X_236_5                       1.000000
X_237_9                       1.000000
X_238_22                      1.000000
X_239_33                      1.000000
X_240_30                      1.000000
X_241_26                      1.000000
X_242_7                       1.000000
X_243_10                      1.000000
X_244_25                      1.000000
X_245_33                      1.000000
X_246_37                      1.000000
X_247_18                      1.000000
X_248_9                       1.000000
X_249_33                      1.000000
X_250_25                      1.000000
X_251_8                       1.000000
X_252_35                      1.000000
X_253_32                      1.000000
X_254_2                       1.000000
X_255_2                       1.000000
X_256_26                      1.000000
X_257_31                      1.000000
X_258_40                      1.000000
X_259_32                      1.000000
X_260_34                      1.000000
X_261_28                      1.000000
X_262_9                       1.000000
X_263_3                       1.000000
X_264_27                      1.000000
X_265_26                      1.000000
X_266_21                      1.000000
X_267_4                       1.000000
X_268_4                       1.000000
X_269_24                      1.000000
X_270_38                      1.000000
X_271_25                      1.000000
X_272_39                      1.000000
X_273_7                       1.000000
X_274_34                      1.000000
X_275_29                      1.000000
X_276_28                      1.000000
X_277_37                      1.000000
X_278_24                      1.000000
X_279_18                      1.000000
X_280_40                      1.000000
X_281_25                      1.000000
X_282_7                       1.000000
X_283_13                      1.000000
X_284_9                       1.000000
X_285_2                       1.000000
X_286_35                      1.000000
X_287_26                      1.000000
X_288_21                      1.000000
X_289_30                      1.000000
X_290_23                      1.000000
X_291_7                       1.000000
X_292_7                       1.000000
X_293_14                      1.000000
X_294_39                      1.000000
X_295_18                      1.000000
X_296_27                      1.000000
X_297_37                      1.000000
X_298_38                      1.000000
X_299_8                       1.000000
X_300_25                      1.000000
X_301_36                      1.000000
X_302_6                       1.000000
X_303_23                      1.000000
X_304_19                      1.000000
X_305_35                      1.000000
X_306_40                      1.000000
X_307_23                      1.000000
X_308_19                      1.000000
X_309_35                      1.000000
X_310_11                      1.000000
X_311_2                       1.000000
X_312_38                      1.000000
X_313_13                      1.000000
X_314_8                       1.000000
X_315_27                      1.000000
X_316_17                      1.000000
X_317_31                      1.000000
X_318_16                      1.000000
X_319_37                      1.000000
X_320_36                      1.000000
X_321_21                      1.000000
X_322_1                       1.000000
X_323_33                      1.000000
X_324_4                       1.000000
X_325_14                      1.000000
X_326_33                      1.000000
X_327_40                      1.000000
X_328_39                      1.000000
X_329_22                      1.000000
X_330_17                      1.000000
X_331_34                      1.000000
X_332_1                       1.000000
X_333_7                       1.000000
X_334_22                      1.000000
X_335_3                       1.000000
X_336_21                      1.000000
X_337_1                       1.000000
X_338_38                      1.000000
X_339_28                      1.000000
X_340_15                      1.000000
X_341_32                      1.000000
X_342_13                      1.000000
X_343_14                      1.000000
X_344_11                      1.000000
X_345_40                      1.000000
X_346_38                      1.000000
X_347_3                       1.000000
X_348_34                      1.000000
X_349_21                      1.000000
X_350_33                      1.000000
X_351_5                       1.000000
X_352_28                      1.000000
X_353_37                      1.000000
X_354_19                      1.000000
X_355_38                      1.000000
X_356_37                      1.000000
X_357_22                      1.000000
X_358_31                      1.000000
X_359_15                      1.000000
X_360_13                      1.000000
X_361_29                      1.000000
X_362_17                      1.000000
X_363_37                      1.000000
X_364_23                      1.000000
X_365_19                      1.000000
X_366_25                      1.000000
X_367_8                       1.000000
X_368_6                       1.000000
X_369_10                      1.000000
X_370_3                       1.000000
X_371_8                       1.000000
X_372_19                      1.000000
X_373_38                      1.000000
X_374_30                      1.000000
X_375_38                      1.000000
X_376_32                      1.000000
X_377_1                       1.000000
X_378_14                      1.000000
X_379_29                      1.000000
X_380_9                       1.000000
X_381_17                      1.000000
X_382_18                      1.000000
X_383_4                       1.000000
X_384_3                       1.000000
X_385_21                      1.000000
X_386_19                      1.000000
X_387_14                      1.000000
X_388_6                       1.000000
X_389_26                      1.000000
X_390_1                       1.000000
X_391_33                      1.000000
X_392_34                      1.000000
X_393_39                      1.000000
X_394_18                      1.000000
X_395_17                      1.000000
X_396_36                      1.000000
X_397_14                      1.000000
X_398_39                      1.000000
X_399_28                      1.000000
X_400_24                      1.000000
X_401_36                      1.000000
X_402_37                      1.000000
X_403_39                      1.000000
X_404_29                      1.000000
X_405_35                      1.000000
X_406_7                       1.000000
X_407_10                      1.000000
X_408_8                       1.000000
X_409_29                      1.000000
X_410_19                      1.000000
X_411_23                      1.000000
X_412_37                      1.000000
X_413_10                      1.000000
X_414_12                      1.000000
X_415_4                       1.000000
X_416_12                      1.000000
X_417_24                      1.000000
X_418_31                      1.000000
X_419_15                      1.000000
X_420_8                       1.000000
X_421_25                      1.000000
X_422_14                      1.000000
X_423_15                      1.000000
X_424_16                      1.000000
X_425_20                      1.000000
X_426_20                      1.000000
X_427_21                      1.000000
X_428_5                       1.000000
X_429_10                      1.000000
X_430_23                      1.000000
X_431_9                       1.000000
X_432_22                      1.000000
X_433_6                       1.000000
X_434_28                      1.000000
X_435_13                      1.000000
X_436_33                      1.000000
X_437_34                      1.000000
X_438_16                      1.000000
X_439_16                      1.000000
X_440_16                      1.000000
X_441_29                      1.000000
X_442_10                      1.000000
X_443_6                       1.000000
X_444_22                      1.000000
X_445_27                      1.000000
X_446_2                       1.000000
X_447_7                       1.000000
X_448_36                      1.000000
X_449_17                      1.000000
X_450_16                      1.000000
X_451_7                       1.000000
X_452_14                      1.000000
X_453_14                      1.000000
X_454_40                      1.000000
X_455_12                      1.000000
X_456_6                       1.000000
X_457_36                      1.000000
X_458_8                       1.000000
X_459_6                       1.000000
X_460_18                      1.000000
X_461_6                       1.000000
X_462_27                      1.000000
X_463_23                      1.000000
X_464_11                      1.000000
X_465_3                       1.000000
X_466_8                       1.000000
X_467_2                       1.000000
X_468_40                      1.000000
X_469_9                       1.000000
X_470_35                      1.000000
X_471_30                      1.000000
X_472_33                      1.000000
X_473_17                      1.000000
X_474_13                      1.000000
X_475_3                       1.000000
X_476_39                      1.000000
X_477_23                      1.000000
X_478_29                      1.000000
X_479_31                      1.000000
X_480_32                      1.000000
X_481_26                      1.000000
X_482_32                      1.000000
X_483_19                      1.000000
X_484_10                      1.000000
X_485_27                      1.000000
X_486_23                      1.000000
X_487_5                       1.000000
X_488_3                       1.000000
X_489_1                       1.000000
X_490_2                       1.000000
X_491_18                      1.000000
X_492_15                      1.000000
X_493_33                      1.000000
X_494_12                      1.000000
X_495_28                      1.000000
X_496_26                      1.000000
X_497_20                      1.000000
X_498_29                      1.000000
X_499_20                      1.000000
X_500_40                      1.000000
All other variables in the range 1-20001 are 0.
